************************************************************************
file with basedata            : J1201_.BAS
initial value random generator: 507806315
************************************************************************
projects                      :  1
jobs (incl. supersource/sink ):  122
horizon                       :  682
RESOURCES
  - renewable                 :  4   R
  - nonrenewable              :  0   N
  - doubly constrained        :  0   D
************************************************************************
PROJECT INFORMATION:
pronr.  #jobs rel.date duedate tardcost  MPM-Time
    1    120      0       89       30       89
************************************************************************
PRECEDENCE RELATIONS:
jobnr.    #modes  #successors   successors
   1        1          3           2   3   4
   2        1          3          21  40 117
   3        1          3           8  11  12
   4        1          3           5   7  50
   5        1          3           6  18 103
   6        1          3          30  82 106
   7        1          1          98
   8        1          3           9  15  42
   9        1          2          10  25
  10        1          3          20  22  48
  11        1          3          13  14  17
  12        1          1          27
  13        1          3          26  28  79
  14        1          3          16  19  36
  15        1          2          31  52
  16        1          3          33  41  70
  17        1          3          29  34  72
  18        1          2          64  95
  19        1          3          23  47 100
  20        1          1          87
  21        1          3          45 104 113
  22        1          1          67
  23        1          1          24
  24        1          1          32
  25        1          1          78
  26        1          1         118
  27        1          1          59
  28        1          2          44  51
  29        1          2          39 102
  30        1          1          63
  31        1          1         100
  32        1          2          43  71
  33        1          2          35  86
  34        1          2          65  88
  35        1          3          38  46  74
  36        1          2          37  61
  37        1          2          49 118
  38        1          1          58
  39        1          3          53  55  69
  40        1          1          77
  41        1          1          81
  42        1          3          54  92  94
  43        1          2          62  85
  44        1          2          60  69
  45        1          2          93 105
  46        1          1          96
  47        1          1          68
  48        1          1          56
  49        1          1          57
  50        1          1          75
  51        1          1         109
  52        1          1         120
  53        1          3          73  76 121
  54        1          1          86
  55        1          1          96
  56        1          1          78
  57        1          2          93  97
  58        1          1          66
  59        1          1          71
  60        1          1          98
  61        1          1          90
  62        1          1         106
  63        1          2          73  84
  64        1          1          80
  65        1          1          96
  66        1          1         103
  67        1          1         107
  68        1          2          69 108
  69        1          1         111
  70        1          1         108
  71        1          1          88
  72        1          1         113
  73        1          1         117
  74        1          1          95
  75        1          1          94
  76        1          1          91
  77        1          2          84  87
  78        1          2         116 119
  79        1          1         101
  80        1          2          88  89
  81        1          1         100
  82        1          1          83
  83        1          1         112
  84        1          1         104
  85        1          1          92
  86        1          1         101
  87        1          2          89  93
  88        1          1          90
  89        1          1         110
  90        1          2          92  99
  91        1          1         103
  92        1          2         104 107
  93        1          1         101
  94        1          1         114
  95        1          1         110
  96        1          1         109
  97        1          1          99
  98        1          1         117
  99        1          3         109 112 119
 100        1          1         108
 101        1          1         115
 102        1          1         115
 103        1          1         105
 104        1          1         119
 105        1          1         107
 106        1          1         116
 107        1          1         112
 108        1          1         110
 109        1          1         111
 110        1          1         111
 111        1          1         113
 112        1          1         115
 113        1          1         121
 114        1          1         116
 115        1          1         120
 116        1          1         118
 117        1          1         120
 118        1          1         121
 119        1          1         122
 120        1          1         122
 121        1          1         122
 122        1          0        
************************************************************************
REQUESTS/DURATIONS:
jobnr. mode duration  R 1  R 2  R 3  R 4
------------------------------------------------------------------------
  1      1     0       0    0    0    0
  2      1     3       0    0    0    7
  3      1     2       0    8    0    0
  4      1     9       0    0    4    0
  5      1     1       0    2    0    0
  6      1     3       0    0    2    0
  7      1     6       5    0    0    0
  8      1     4       5    0    0    0
  9      1     4       8    0    0    0
 10      1     8       0    0    7    0
 11      1     9       0    8    0    0
 12      1     6       0    0    0    8
 13      1     9       0    1    0    0
 14      1     9       0    0    0    9
 15      1     8       0    2    0    0
 16      1     9       0    0    7    0
 17      1     5       0    0    7    0
 18      1     2       0    0    0    7
 19      1     2       0    0    7    0
 20      1     5       0    0    0    4
 21      1     4       0    6    0    0
 22      1     9       3    0    0    0
 23      1     8       0    0    0   10
 24      1     2       0    0    5    0
 25      1     6       5    0    0    0
 26      1     9       1    0    0    0
 27      1     1       0    0    0    2
 28      1    10       0    0    4    0
 29      1     1       7    0    0    0
 30      1     3       0    4    0    0
 31      1     1       0    3    0    0
 32      1    10       0    0    0   10
 33      1     2       0    0    0    9
 34      1     7       0    8    0    0
 35      1     8       0   10    0    0
 36      1     9       0    0    5    0
 37      1     3       0    0    3    0
 38      1     7       0    6    0    0
 39      1     5       0    0    7    0
 40      1     6       0    0    0    4
 41      1     2       0    9    0    0
 42      1     8       0    5    0    0
 43      1     5       7    0    0    0
 44      1     3       0   10    0    0
 45      1     4       0    0    7    0
 46      1     6       3    0    0    0
 47      1     9       2    0    0    0
 48      1     1       0    0    0    8
 49      1     7       0    0   10    0
 50      1     2       0    0    0    1
 51      1    10       6    0    0    0
 52      1     3       0    0    0    5
 53      1     4       0    0    6    0
 54      1     7       0    5    0    0
 55      1     1       0    0    0    7
 56      1     8       0    0    6    0
 57      1     8       0    0    3    0
 58      1     3       0    3    0    0
 59      1     5       0    0    6    0
 60      1     4       0    0    0    6
 61      1     8       0    0    0    5
 62      1     8       0    2    0    0
 63      1    10       0    4    0    0
 64      1     5       0    0    0    8
 65      1     1       6    0    0    0
 66      1     7       9    0    0    0
 67      1     8       2    0    0    0
 68      1     7       0   10    0    0
 69      1     5       0    5    0    0
 70      1     9       0    0    0    9
 71      1     4       0    0    7    0
 72      1     4       2    0    0    0
 73      1     2       0    0    9    0
 74      1     8       0    0    0    1
 75      1     4       0    0    8    0
 76      1     5       7    0    0    0
 77      1     7       9    0    0    0
 78      1     8       1    0    0    0
 79      1     3       0    4    0    0
 80      1     5       0    1    0    0
 81      1     9       0    0    0    6
 82      1    10       0    6    0    0
 83      1     6       0    7    0    0
 84      1     8       0    0    0    4
 85      1    10       8    0    0    0
 86      1    10       0    1    0    0
 87      1     5       0    9    0    0
 88      1     2       0    0    6    0
 89      1     3       0   10    0    0
 90      1     1       0    0    9    0
 91      1     8      10    0    0    0
 92      1     2       0    0    0    2
 93      1     1       0    0    0   10
 94      1     6       9    0    0    0
 95      1    10       2    0    0    0
 96      1     6       0    0    7    0
 97      1     6       1    0    0    0
 98      1     1       0    0    8    0
 99      1     7       9    0    0    0
100      1     8       0    1    0    0
101      1    10       0    7    0    0
102      1     2       0    0    1    0
103      1     4       0    0    6    0
104      1     7       0    0    0   10
105      1     5       8    0    0    0
106      1     9       7    0    0    0
107      1     7       7    0    0    0
108      1     3       0    3    0    0
109      1     8       0    4    0    0
110      1     4       0    0    2    0
111      1    10       0    0    0    4
112      1     2       0    0    3    0
113      1     8       0    0    4    0
114      1    10       9    0    0    0
115      1     5       0    2    0    0
116      1     2       2    0    0    0
117      1     8       0    0   10    0
118      1     7       0    0    0    8
119      1     6       0    0    0    6
120      1    10       0    0    6    0
121      1     3       0    0    0    2
122      1     0       0    0    0    0
************************************************************************
RESOURCEAVAILABILITIES:
  R 1  R 2  R 3  R 4
   13   12   13   13
************************************************************************
Job	#risk	Type	VL	mu	sigma	Type	VL	mu	sigma
2	1	6	0.2	7.5	1.5
7	2	1	0.05	1.25	0.0625	3	0.05	3.75	0.1875
10	2	2	0.1	2.5	0.25	6	0.05	7.5	0.375
13	1	8	0.1	10	1
18	1	2	0.1	2.5	0.25
19	1	2	0.2	2.5	0.5
21	1	5	0.1	6.25	0.625
23	2	1	0.05	1.25	0.0625	4	0.1	5	0.5
25	1	5	0.2	6.25	1.25
26	2	1	0.2	1.25	0.25	8	0.2	10	2
29	2	6	0.05	7.5	0.375	7	0.2	8.75	1.75
30	1	6	0.2	7.5	1.5
31	1	8	0.05	10	0.5
32	1	7	0.2	8.75	1.75
35	1	5	0.05	6.25	0.3125
37	1	3	0.2	3.75	0.75
46	2	2	0.1	2.5	0.25	7	0.1	8.75	0.875
49	2	2	0.1	2.5	0.25	5	0.2	6.25	1.25
53	2	1	0.2	1.25	0.25	5	0.1	6.25	0.625
54	1	7	0.05	8.75	0.4375
55	2	3	0.05	3.75	0.1875	4	0.1	5	0.5
58	1	8	0.1	10	1
61	1	6	0.2	7.5	1.5
62	1	7	0.05	8.75	0.4375
65	2	5	0.05	6.25	0.3125	8	0.1	10	1
69	1	7	0.2	8.75	1.75
71	1	8	0.2	10	2
78	2	5	0.05	6.25	0.3125	7	0.05	8.75	0.4375
85	1	5	0.1	6.25	0.625
87	2	4	0.1	5	0.5	6	0.05	7.5	0.375
99	2	6	0.05	7.5	0.375	8	0.2	10	2
106	1	8	0.1	10	1
107	1	2	0.05	2.5	0.125
108	2	3	0.1	3.75	0.375	4	0.2	5	1
113	2	1	0.1	1.25	0.125	3	0.05	3.75	0.1875
114	2	2	0.1	2.5	0.25	4	0.1	5	0.5
